
  22   10
  10   10   10   10   10   10   10   10   10   10

   0   0   0   0   0   0   0   0   0   0   0   7 2 4 5 6 8 12 13 
   2   0   0   0   0   0   0   0   0  10   0   3 16 7 3 
   7   0   0   0   0   0   0   0   0  10   0   4 21 18 15 9 
   9  10   0   0   0   0   0   0   0   0   0   4 18 16 15 11 
   2   0   0   0   0   0   0  10   0   0   0   4 18 16 15 11 
   2   0   0   0   0   0   0  10   0   0   0   3 17 15 10 
   2   0   0   0   0  10   0   0   0   0   0   4 19 17 15 14 
   7   0   0   0   0   0   0   0  10   0   0   4 19 17 16 14 
   6   0   0   0   0   0   0   0   0  10   0   2 20 10 
   2   0   0   0   0   0   0   0   0  10   0   1 11 
   8   0   0   0   0   0   0   0   0   0  10   1 14 
   2   0   0   0  10   0   0   0   0   0   0   1 15 
   5   0   0  10   0   0   0   0   0   0   0   1 15 
   5   0   0   0  10   0   0   0   0   0   0   1 22
   4   0   0   0   0   0   0   0   0  10   0   1 22
   9   0   0  10   0   0   0   0   0   0   0   1 22
  10   0   0   0  10   0   0   0   0   0   0   1 22
   5   0   0   0   0   0   0   0   0  10   0   1 22
   4   0   0  10   0   0   0   0   0   0   0   1 22
   1   0   0   0  10   0   0   0   0   0   0   1 22
   5  10   0   0   0   0   0   0   0   0   0   1 22
   0   0   0   0   0   0   0   0   0   0   0   0 
